92 52 18 96 89 
14 40 57 24 80 
28 12 76 79 20 77 
72 75 53 56 25 
39 23 22 37 60 100 
59 5 98 61 86 17 93 
27 21 73 41 26 1 70 
65 71 81 3 68 58 
36 47 6 43 91 
45 82 99 94 4 
63 64 90 10 48 
33 29 78 50 13 
42 2 84 97 
83 19 8 46 
62 11 32 
31 51 9 34 35 
95 44 87 74 
69 88 66 
16 85 54 
15 55 
7 49 
30 
67 
38 

